p cnf 240 814
c p weight 96 -1 0
c p weight -96 1 0
c p weight 98 6.12323399573676603586882014729198302312846062338790031898128063403419218957424163818359375E-17 0
c p weight -98 1 0
c p weight 99 1 0
c p weight -99 1 0
c p weight 100 -1 0
c p weight -100 1 0
c p weight 102 -1 0
c p weight -102 1 0
c p weight 105 -1 0
c p weight -105 1 0
c p weight 108 -1 0
c p weight -108 1 0
c p weight 111 -1 0
c p weight -111 1 0
c p weight 114 -1 0
c p weight -114 1 0
c p weight 117 -1 0
c p weight -117 1 0
c p weight 120 -1 0
c p weight -120 1 0
c p weight 123 -1 0
c p weight -123 1 0
c p weight 126 -1 0
c p weight -126 1 0
c p weight 129 -1 0
c p weight -129 1 0
c p weight 132 -1 0
c p weight -132 1 0
c p weight 135 -1 0
c p weight -135 1 0
c p weight 138 -1 0
c p weight -138 1 0
c p weight 141 -1 0
c p weight -141 1 0
c p weight 144 -1 0
c p weight -144 1 0
c p weight 147 -1 0
c p weight -147 1 0
c p weight 150 -1 0
c p weight -150 1 0
c p weight 153 -1 0
c p weight -153 1 0
c p weight 156 -1 0
c p weight -156 1 0
c p weight 159 -1 0
c p weight -159 1 0
c p weight 162 -1 0
c p weight -162 1 0
c p weight 165 -1 0
c p weight -165 1 0
c p weight 168 -1 0
c p weight -168 1 0
c p weight 171 -1 0
c p weight -171 1 0
c p weight 174 -1 0
c p weight -174 1 0
c p weight 177 -1 0
c p weight -177 1 0
c p weight 180 -1 0
c p weight -180 1 0
c p weight 183 -1 0
c p weight -183 1 0
c p weight 186 -1 0
c p weight -186 1 0
c p weight 189 -1 0
c p weight -189 1 0
c p weight 192 -1 0
c p weight -192 1 0
c p weight 195 -1 0
c p weight -195 1 0
c p weight 198 -1 0
c p weight -198 1 0
c p weight 201 -1 0
c p weight -201 1 0
c p weight 204 -1 0
c p weight -204 1 0
c p weight 207 -1 0
c p weight -207 1 0
c p weight 210 -1 0
c p weight -210 1 0
c p weight 213 -1 0
c p weight -213 1 0
c p weight 216 -1 0
c p weight -216 1 0
c p weight 219 -1 0
c p weight -219 1 0
c p weight 222 -1 0
c p weight -222 1 0
c p weight 225 -1 0
c p weight -225 1 0
c p weight 228 -1 0
c p weight -228 1 0
c p weight 231 -1 0
c p weight -231 1 0
c p weight 234 -1 0
c p weight -234 1 0
c p weight 237 -1 0
c p weight -237 1 0
c p weight 240 -1 0
c p weight -240 1 0
-93 0
-91 0
-89 0
-87 0
-85 0
-83 0
-81 0
-79 0
-77 0
-75 0
-73 0
-71 0
-69 0
-67 0
-65 0
-63 0
-61 0
-59 0
-57 0
-55 0
-53 0
-51 0
-49 0
-47 0
-45 0
-43 0
-41 0
-39 0
-37 0
-35 0
-33 0
-31 0
-29 0
-27 0
-25 0
-23 0
-21 0
-19 0
-17 0
-15 0
-13 0
-11 0
-9 0
-7 0
-5 0
-3 0
-1 0
95 93 -94 0
95 -93 94 0
-95 93 94 0
-95 -93 -94 0
-96 93 0
-96 94 0
96 -93 -94 0
97 -93 95 0
-97 93 95 0
-98 95 0
97 -98 -93 0
-97 -98 93 0
97 98 93 -95 0
-97 98 -93 -95 0
-99 95 0
97 -99 93 0
-97 -99 -93 0
97 99 -93 -95 0
-97 99 93 -95 0
-100 97 0
-100 95 0
-100 -93 0
100 -97 93 -95 0
101 97 -95 0
101 -97 95 0
-101 97 95 0
-101 -97 -95 0
-102 97 0
-102 95 0
102 -97 -95 0
103 97 -91 0
103 -97 91 0
-103 97 91 0
-103 -97 -91 0
104 101 -92 0
104 -101 92 0
-104 101 92 0
-104 -101 -92 0
-105 97 0
-105 92 0
-105 91 -101 0
-105 -91 101 0
105 -97 91 101 -92 0
105 -97 -91 -101 -92 0
106 103 -89 0
106 -103 89 0
-106 103 89 0
-106 -103 -89 0
107 92 -90 0
107 -92 90 0
-107 92 90 0
-107 -92 -90 0
-108 103 0
-108 90 0
-108 89 -92 0
-108 -89 92 0
108 -103 89 92 -90 0
108 -103 -89 -92 -90 0
109 106 -87 0
109 -106 87 0
-109 106 87 0
-109 -106 -87 0
110 90 -88 0
110 -90 88 0
-110 90 88 0
-110 -90 -88 0
-111 106 0
-111 88 0
-111 87 -90 0
-111 -87 90 0
111 -106 87 90 -88 0
111 -106 -87 -90 -88 0
112 109 -85 0
112 -109 85 0
-112 109 85 0
-112 -109 -85 0
113 88 -86 0
113 -88 86 0
-113 88 86 0
-113 -88 -86 0
-114 109 0
-114 86 0
-114 85 -88 0
-114 -85 88 0
114 -109 85 88 -86 0
114 -109 -85 -88 -86 0
115 112 -83 0
115 -112 83 0
-115 112 83 0
-115 -112 -83 0
116 86 -84 0
116 -86 84 0
-116 86 84 0
-116 -86 -84 0
-117 112 0
-117 84 0
-117 83 -86 0
-117 -83 86 0
117 -112 83 86 -84 0
117 -112 -83 -86 -84 0
118 115 -81 0
118 -115 81 0
-118 115 81 0
-118 -115 -81 0
119 84 -82 0
119 -84 82 0
-119 84 82 0
-119 -84 -82 0
-120 115 0
-120 82 0
-120 81 -84 0
-120 -81 84 0
120 -115 81 84 -82 0
120 -115 -81 -84 -82 0
121 118 -79 0
121 -118 79 0
-121 118 79 0
-121 -118 -79 0
122 82 -80 0
122 -82 80 0
-122 82 80 0
-122 -82 -80 0
-123 118 0
-123 80 0
-123 79 -82 0
-123 -79 82 0
123 -118 79 82 -80 0
123 -118 -79 -82 -80 0
124 121 -77 0
124 -121 77 0
-124 121 77 0
-124 -121 -77 0
125 80 -78 0
125 -80 78 0
-125 80 78 0
-125 -80 -78 0
-126 121 0
-126 78 0
-126 77 -80 0
-126 -77 80 0
126 -121 77 80 -78 0
126 -121 -77 -80 -78 0
127 124 -75 0
127 -124 75 0
-127 124 75 0
-127 -124 -75 0
128 78 -76 0
128 -78 76 0
-128 78 76 0
-128 -78 -76 0
-129 124 0
-129 76 0
-129 75 -78 0
-129 -75 78 0
129 -124 75 78 -76 0
129 -124 -75 -78 -76 0
130 127 -73 0
130 -127 73 0
-130 127 73 0
-130 -127 -73 0
131 76 -74 0
131 -76 74 0
-131 76 74 0
-131 -76 -74 0
-132 127 0
-132 74 0
-132 73 -76 0
-132 -73 76 0
132 -127 73 76 -74 0
132 -127 -73 -76 -74 0
133 130 -71 0
133 -130 71 0
-133 130 71 0
-133 -130 -71 0
134 74 -72 0
134 -74 72 0
-134 74 72 0
-134 -74 -72 0
-135 130 0
-135 72 0
-135 71 -74 0
-135 -71 74 0
135 -130 71 74 -72 0
135 -130 -71 -74 -72 0
136 133 -69 0
136 -133 69 0
-136 133 69 0
-136 -133 -69 0
137 72 -70 0
137 -72 70 0
-137 72 70 0
-137 -72 -70 0
-138 133 0
-138 70 0
-138 69 -72 0
-138 -69 72 0
138 -133 69 72 -70 0
138 -133 -69 -72 -70 0
139 136 -67 0
139 -136 67 0
-139 136 67 0
-139 -136 -67 0
140 70 -68 0
140 -70 68 0
-140 70 68 0
-140 -70 -68 0
-141 136 0
-141 68 0
-141 67 -70 0
-141 -67 70 0
141 -136 67 70 -68 0
141 -136 -67 -70 -68 0
142 139 -65 0
142 -139 65 0
-142 139 65 0
-142 -139 -65 0
143 68 -66 0
143 -68 66 0
-143 68 66 0
-143 -68 -66 0
-144 139 0
-144 66 0
-144 65 -68 0
-144 -65 68 0
144 -139 65 68 -66 0
144 -139 -65 -68 -66 0
145 142 -63 0
145 -142 63 0
-145 142 63 0
-145 -142 -63 0
146 66 -64 0
146 -66 64 0
-146 66 64 0
-146 -66 -64 0
-147 142 0
-147 64 0
-147 63 -66 0
-147 -63 66 0
147 -142 63 66 -64 0
147 -142 -63 -66 -64 0
148 145 -61 0
148 -145 61 0
-148 145 61 0
-148 -145 -61 0
149 64 -62 0
149 -64 62 0
-149 64 62 0
-149 -64 -62 0
-150 145 0
-150 62 0
-150 61 -64 0
-150 -61 64 0
150 -145 61 64 -62 0
150 -145 -61 -64 -62 0
151 148 -59 0
151 -148 59 0
-151 148 59 0
-151 -148 -59 0
152 62 -60 0
152 -62 60 0
-152 62 60 0
-152 -62 -60 0
-153 148 0
-153 60 0
-153 59 -62 0
-153 -59 62 0
153 -148 59 62 -60 0
153 -148 -59 -62 -60 0
154 151 -57 0
154 -151 57 0
-154 151 57 0
-154 -151 -57 0
155 60 -58 0
155 -60 58 0
-155 60 58 0
-155 -60 -58 0
-156 151 0
-156 58 0
-156 57 -60 0
-156 -57 60 0
156 -151 57 60 -58 0
156 -151 -57 -60 -58 0
157 154 -55 0
157 -154 55 0
-157 154 55 0
-157 -154 -55 0
158 58 -56 0
158 -58 56 0
-158 58 56 0
-158 -58 -56 0
-159 154 0
-159 56 0
-159 55 -58 0
-159 -55 58 0
159 -154 55 58 -56 0
159 -154 -55 -58 -56 0
160 157 -53 0
160 -157 53 0
-160 157 53 0
-160 -157 -53 0
161 56 -54 0
161 -56 54 0
-161 56 54 0
-161 -56 -54 0
-162 157 0
-162 54 0
-162 53 -56 0
-162 -53 56 0
162 -157 53 56 -54 0
162 -157 -53 -56 -54 0
163 160 -51 0
163 -160 51 0
-163 160 51 0
-163 -160 -51 0
164 54 -52 0
164 -54 52 0
-164 54 52 0
-164 -54 -52 0
-165 160 0
-165 52 0
-165 51 -54 0
-165 -51 54 0
165 -160 51 54 -52 0
165 -160 -51 -54 -52 0
166 163 -49 0
166 -163 49 0
-166 163 49 0
-166 -163 -49 0
167 52 -50 0
167 -52 50 0
-167 52 50 0
-167 -52 -50 0
-168 163 0
-168 50 0
-168 49 -52 0
-168 -49 52 0
168 -163 49 52 -50 0
168 -163 -49 -52 -50 0
169 166 -47 0
169 -166 47 0
-169 166 47 0
-169 -166 -47 0
170 50 -48 0
170 -50 48 0
-170 50 48 0
-170 -50 -48 0
-171 166 0
-171 48 0
-171 47 -50 0
-171 -47 50 0
171 -166 47 50 -48 0
171 -166 -47 -50 -48 0
172 169 -45 0
172 -169 45 0
-172 169 45 0
-172 -169 -45 0
173 48 -46 0
173 -48 46 0
-173 48 46 0
-173 -48 -46 0
-174 169 0
-174 46 0
-174 45 -48 0
-174 -45 48 0
174 -169 45 48 -46 0
174 -169 -45 -48 -46 0
175 172 -43 0
175 -172 43 0
-175 172 43 0
-175 -172 -43 0
176 46 -44 0
176 -46 44 0
-176 46 44 0
-176 -46 -44 0
-177 172 0
-177 44 0
-177 43 -46 0
-177 -43 46 0
177 -172 43 46 -44 0
177 -172 -43 -46 -44 0
178 175 -41 0
178 -175 41 0
-178 175 41 0
-178 -175 -41 0
179 44 -42 0
179 -44 42 0
-179 44 42 0
-179 -44 -42 0
-180 175 0
-180 42 0
-180 41 -44 0
-180 -41 44 0
180 -175 41 44 -42 0
180 -175 -41 -44 -42 0
181 178 -39 0
181 -178 39 0
-181 178 39 0
-181 -178 -39 0
182 42 -40 0
182 -42 40 0
-182 42 40 0
-182 -42 -40 0
-183 178 0
-183 40 0
-183 39 -42 0
-183 -39 42 0
183 -178 39 42 -40 0
183 -178 -39 -42 -40 0
184 181 -37 0
184 -181 37 0
-184 181 37 0
-184 -181 -37 0
185 40 -38 0
185 -40 38 0
-185 40 38 0
-185 -40 -38 0
-186 181 0
-186 38 0
-186 37 -40 0
-186 -37 40 0
186 -181 37 40 -38 0
186 -181 -37 -40 -38 0
187 184 -35 0
187 -184 35 0
-187 184 35 0
-187 -184 -35 0
188 38 -36 0
188 -38 36 0
-188 38 36 0
-188 -38 -36 0
-189 184 0
-189 36 0
-189 35 -38 0
-189 -35 38 0
189 -184 35 38 -36 0
189 -184 -35 -38 -36 0
190 187 -33 0
190 -187 33 0
-190 187 33 0
-190 -187 -33 0
191 36 -34 0
191 -36 34 0
-191 36 34 0
-191 -36 -34 0
-192 187 0
-192 34 0
-192 33 -36 0
-192 -33 36 0
192 -187 33 36 -34 0
192 -187 -33 -36 -34 0
193 190 -31 0
193 -190 31 0
-193 190 31 0
-193 -190 -31 0
194 34 -32 0
194 -34 32 0
-194 34 32 0
-194 -34 -32 0
-195 190 0
-195 32 0
-195 31 -34 0
-195 -31 34 0
195 -190 31 34 -32 0
195 -190 -31 -34 -32 0
196 193 -29 0
196 -193 29 0
-196 193 29 0
-196 -193 -29 0
197 32 -30 0
197 -32 30 0
-197 32 30 0
-197 -32 -30 0
-198 193 0
-198 30 0
-198 29 -32 0
-198 -29 32 0
198 -193 29 32 -30 0
198 -193 -29 -32 -30 0
199 196 -27 0
199 -196 27 0
-199 196 27 0
-199 -196 -27 0
200 30 -28 0
200 -30 28 0
-200 30 28 0
-200 -30 -28 0
-201 196 0
-201 28 0
-201 27 -30 0
-201 -27 30 0
201 -196 27 30 -28 0
201 -196 -27 -30 -28 0
202 199 -25 0
202 -199 25 0
-202 199 25 0
-202 -199 -25 0
203 28 -26 0
203 -28 26 0
-203 28 26 0
-203 -28 -26 0
-204 199 0
-204 26 0
-204 25 -28 0
-204 -25 28 0
204 -199 25 28 -26 0
204 -199 -25 -28 -26 0
205 202 -23 0
205 -202 23 0
-205 202 23 0
-205 -202 -23 0
206 26 -24 0
206 -26 24 0
-206 26 24 0
-206 -26 -24 0
-207 202 0
-207 24 0
-207 23 -26 0
-207 -23 26 0
207 -202 23 26 -24 0
207 -202 -23 -26 -24 0
208 205 -21 0
208 -205 21 0
-208 205 21 0
-208 -205 -21 0
209 24 -22 0
209 -24 22 0
-209 24 22 0
-209 -24 -22 0
-210 205 0
-210 22 0
-210 21 -24 0
-210 -21 24 0
210 -205 21 24 -22 0
210 -205 -21 -24 -22 0
211 208 -19 0
211 -208 19 0
-211 208 19 0
-211 -208 -19 0
212 22 -20 0
212 -22 20 0
-212 22 20 0
-212 -22 -20 0
-213 208 0
-213 20 0
-213 19 -22 0
-213 -19 22 0
213 -208 19 22 -20 0
213 -208 -19 -22 -20 0
214 211 -17 0
214 -211 17 0
-214 211 17 0
-214 -211 -17 0
215 20 -18 0
215 -20 18 0
-215 20 18 0
-215 -20 -18 0
-216 211 0
-216 18 0
-216 17 -20 0
-216 -17 20 0
216 -211 17 20 -18 0
216 -211 -17 -20 -18 0
217 214 -15 0
217 -214 15 0
-217 214 15 0
-217 -214 -15 0
218 18 -16 0
218 -18 16 0
-218 18 16 0
-218 -18 -16 0
-219 214 0
-219 16 0
-219 15 -18 0
-219 -15 18 0
219 -214 15 18 -16 0
219 -214 -15 -18 -16 0
220 217 -13 0
220 -217 13 0
-220 217 13 0
-220 -217 -13 0
221 16 -14 0
221 -16 14 0
-221 16 14 0
-221 -16 -14 0
-222 217 0
-222 14 0
-222 13 -16 0
-222 -13 16 0
222 -217 13 16 -14 0
222 -217 -13 -16 -14 0
223 220 -11 0
223 -220 11 0
-223 220 11 0
-223 -220 -11 0
224 14 -12 0
224 -14 12 0
-224 14 12 0
-224 -14 -12 0
-225 220 0
-225 12 0
-225 11 -14 0
-225 -11 14 0
225 -220 11 14 -12 0
225 -220 -11 -14 -12 0
226 223 -9 0
226 -223 9 0
-226 223 9 0
-226 -223 -9 0
227 12 -10 0
227 -12 10 0
-227 12 10 0
-227 -12 -10 0
-228 223 0
-228 10 0
-228 9 -12 0
-228 -9 12 0
228 -223 9 12 -10 0
228 -223 -9 -12 -10 0
229 226 -7 0
229 -226 7 0
-229 226 7 0
-229 -226 -7 0
230 10 -8 0
230 -10 8 0
-230 10 8 0
-230 -10 -8 0
-231 226 0
-231 8 0
-231 7 -10 0
-231 -7 10 0
231 -226 7 10 -8 0
231 -226 -7 -10 -8 0
232 229 -5 0
232 -229 5 0
-232 229 5 0
-232 -229 -5 0
233 8 -6 0
233 -8 6 0
-233 8 6 0
-233 -8 -6 0
-234 229 0
-234 6 0
-234 5 -8 0
-234 -5 8 0
234 -229 5 8 -6 0
234 -229 -5 -8 -6 0
235 232 -3 0
235 -232 3 0
-235 232 3 0
-235 -232 -3 0
236 6 -4 0
236 -6 4 0
-236 6 4 0
-236 -6 -4 0
-237 232 0
-237 4 0
-237 3 -6 0
-237 -3 6 0
237 -232 3 6 -4 0
237 -232 -3 -6 -4 0
238 235 -1 0
238 -235 1 0
-238 235 1 0
-238 -235 -1 0
239 4 -2 0
239 -4 2 0
-239 4 2 0
-239 -4 -2 0
-240 235 0
-240 2 0
-240 1 -4 0
-240 -1 4 0
240 -235 1 4 -2 0
240 -235 -1 -4 -2 0
-238 0
-235 0
-239 0
-232 0
-236 0
-229 0
-233 0
-226 0
-230 0
-223 0
-227 0
-220 0
-224 0
-217 0
-221 0
-214 0
-218 0
-211 0
-215 0
-208 0
-212 0
-205 0
-209 0
-202 0
-206 0
-199 0
-203 0
-196 0
-200 0
-193 0
-197 0
-190 0
-194 0
-187 0
-191 0
-184 0
-188 0
-181 0
-185 0
-178 0
-182 0
-175 0
-179 0
-172 0
-176 0
-169 0
-173 0
-166 0
-170 0
-163 0
-167 0
-160 0
-164 0
-157 0
-161 0
-154 0
-158 0
-151 0
-155 0
-148 0
-152 0
-145 0
-149 0
-142 0
-146 0
-139 0
-143 0
-136 0
-140 0
-133 0
-137 0
-130 0
-134 0
-127 0
-131 0
-124 0
-128 0
-121 0
-125 0
-118 0
-122 0
-115 0
-119 0
-112 0
-116 0
-109 0
-113 0
-106 0
-110 0
-103 0
-107 0
-97 0
-104 0
